

units           lj
atom_style      full
dimension       3
boundary        p p p


pair_style soft 1.0
read_data       packed.data

bond_style      fene
bond_coeff      * 30.0 1.5 1.0 1.0
special_bonds fene


pair_coeff * * 0.0
variable prefactor equal ramp(0,300)
fix rampSoft all adapt 1 pair soft a * * v_prefactor


variable        runtime equal 1000000
variable        Temp equal 1.0
variable        velSeed equal 926458  
variable        dt equal 0.005
variable        Tdamping equal 100*${dt}

timestep        ${dt}

velocity        all create ${Temp} ${velSeed} mom no


minimize 0.0 1.0e-8 1000 100000


thermo_style    custom step time temp vol density press etotal pe ke epair ebond eangle
thermo          1000
thermo_modify line yaml format none


fix nvtSoft all nvt temp ${Temp} ${Temp} ${Tdamping}
reset_timestep 0
run 10000         

write_data relaxed.data
unfix rampSoft
unfix nvtSoft

pair_style      lj/cut 1.12
pair_coeff      * * 1.0 1.0  


fix nvt all nvt temp ${Temp} ${Temp} ${Tdamping}


reset_timestep 0
thermo          10000


dump lindump all custom 10000 traj.lin id type xu yu zu vx vy vz

variable step equal logfreq(1,9,10)
dump logdump all custom 1 traj.log id type xu yu zu vx vy vz
dump_modify logdump every v_step first yes
dump_modify logdump sort id



run 1000000

write_data final.data
